
******************************************************************************
This program contains Ipopt, a library for large-scale nonlinear optimization.
 Ipopt is released as open source code under the Eclipse Public License (EPL).
         For more information visit http://projects.coin-or.org/Ipopt
******************************************************************************

This is Ipopt version 3.13.2, running with linear solver mumps.
NOTE: Other linear solvers might be more efficient (see Ipopt documentation).

Number of nonzeros in equality constraint Jacobian...:        0
Number of nonzeros in inequality constraint Jacobian.:     8450
Number of nonzeros in Lagrangian Hessian.............:        0

Total number of variables............................:     4225
                     variables with only lower bounds:        0
                variables with lower and upper bounds:     4225
                     variables with only upper bounds:        0
Total number of equality constraints.................:        0
Total number of inequality constraints...............:        2
        inequality constraints with only lower bounds:        2
   inequality constraints with lower and upper bounds:        0
        inequality constraints with only upper bounds:        0

iter    objective    inf_pr   inf_du lg(mu)  ||d||  lg(rg) alpha_du alpha_pr  ls
   0  1.8663436e-01 5.50e-01 2.77e-01  -1.0 0.00e+00    -  0.00e+00 0.00e+00   0
   1  1.8684521e-01 5.50e-01 4.93e+01  -1.7 5.50e-01    -  8.99e-01 1.80e-02f  1
   2  1.9108148e-01 5.47e-01 4.20e+02  -1.7 2.14e+00    -  4.89e-02 5.99e-03f  1
   3  2.4720859e+00 2.07e-01 2.25e+03  -1.7 1.49e+00    -  1.18e-01 6.22e-01f  1
   4  2.9636175e+00 4.76e-03 3.05e+02  -1.7 3.46e-01    -  5.83e-01 9.77e-01f  1
   5  1.8268510e+00 1.43e-01 1.40e+02  -1.7 1.02e+00    -  3.25e-01 3.63e-01f  1
   6  1.6806588e+00 1.33e-01 2.28e+02  -1.7 8.77e-01    -  2.67e-01 1.41e-01f  1
   7  1.4607071e+00 1.18e-01 2.23e+02  -1.7 1.90e+00    -  5.22e-01 3.90e-01f  1
   8  1.7968281e+00 2.20e-02 1.99e+00  -1.7 5.30e-01    -  1.00e+00 9.96e-01h  1
   9  1.8064058e+00 1.72e-03 6.85e-01  -1.7 2.00e-01    -  9.57e-01 1.00e+00h  1
iter    objective    inf_pr   inf_du lg(mu)  ||d||  lg(rg) alpha_du alpha_pr  ls
  10  1.9240391e+00 0.00e+00 2.89e-01  -1.7 2.76e-01    -  1.00e+00 1.00e+00f  1
  11  1.9678768e+00 0.00e+00 2.37e-01  -1.7 1.17e-01    -  1.00e+00 1.00e+00f  1
  12  2.1336844e+00 6.09e-03 1.07e+00  -1.7 5.66e-01    -  7.61e-01 9.00e-01f  1
  13  2.1895398e+00 3.04e-03 4.01e-02  -1.7 2.38e-01    -  1.00e+00 1.00e+00f  1
  14  1.8282336e+00 2.50e-04 3.62e+01  -2.5 2.47e-01    -  5.73e-01 1.00e+00f  1
  15  1.6691328e+00 0.00e+00 3.53e-02  -2.5 1.25e-01    -  1.00e+00 1.00e+00f  1
  16  1.5098272e+00 0.00e+00 1.32e-02  -2.5 2.49e-01    -  1.00e+00 1.00e+00f  1
  17  1.3597717e+00 0.00e+00 2.05e-01  -3.8 5.64e-01    -  5.59e-01 5.73e-01f  1
  18  1.2053759e+00 0.00e+00 3.75e-01  -3.8 5.53e-01    -  6.91e-01 6.24e-01f  1
  19  1.1273094e+00 0.00e+00 1.75e+00  -3.8 5.67e-01    -  8.63e-01 3.23e-01f  1
iter    objective    inf_pr   inf_du lg(mu)  ||d||  lg(rg) alpha_du alpha_pr  ls
  20  1.0280399e+00 0.00e+00 1.40e+00  -3.8 6.64e-01    -  6.75e-01 3.27e-01f  1
  21  9.3374615e-01 0.00e+00 9.58e-01  -3.8 8.02e-01    -  4.77e-01 3.41e-01f  1
  22  8.7171269e-01 0.00e+00 7.54e-01  -3.8 1.25e+00    -  4.54e-01 2.61e-01f  1
  23  7.9194447e-01 0.00e+00 3.93e-01  -3.8 7.89e-01    -  6.00e-01 5.13e-01f  1
  24  6.8464521e-01 0.00e+00 4.12e-03  -3.8 5.04e-01    -  1.00e+00 1.00e+00f  1
  25  6.8257166e-01 0.00e+00 1.29e-02  -3.8 1.30e-02    -  1.00e+00 1.00e+00h  1
  26  6.6481281e-01 0.00e+00 1.93e-01  -3.8 2.94e-01    -  1.00e+00 5.46e-01f  1
  27  6.3034384e-01 0.00e+00 1.89e-03  -3.8 2.33e-01    -  1.00e+00 1.00e+00f  1
  28  5.9310751e-01 0.00e+00 1.74e-03  -3.8 1.78e-01    -  1.00e+00 1.00e+00h  1
  29  5.9269551e-01 0.00e+00 1.17e-02  -3.8 1.17e-02    -  1.00e+00 1.00e+00h  1
iter    objective    inf_pr   inf_du lg(mu)  ||d||  lg(rg) alpha_du alpha_pr  ls
  30  5.6704510e-01 0.00e+00 2.06e-02  -3.8 2.69e-01    -  1.00e+00 9.18e-01f  1
  31  5.5844675e-01 0.00e+00 1.24e-03  -3.8 1.96e-01    -  1.00e+00 1.00e+00f  1
  32  5.2050928e-01 0.00e+00 2.22e-01  -5.7 4.59e-01    -  4.98e-01 3.85e-01f  1
  33  5.1654299e-01 0.00e+00 6.12e-03  -5.7 6.17e-03    -  9.97e-01 1.00e+00h  1
  34  4.9552733e-01 0.00e+00 1.12e-01  -5.7 6.05e-01    -  1.89e-01 7.59e-02f  1
  35  4.7782731e-01 0.00e+00 2.13e-01  -5.7 1.65e+00    -  1.28e-01 5.37e-02f  1
  36  4.6112559e-01 0.00e+00 2.48e-01  -5.7 7.16e+00    -  5.01e-02 2.38e-02f  1
  37  4.5004765e-01 0.00e+00 2.65e-01  -5.7 2.06e+01    -  2.44e-02 8.27e-03f  1
  38  4.4028559e-01 0.00e+00 3.10e-01  -5.7 1.07e+01    -  5.56e-02 1.25e-02f  1
  39  4.2692302e-01 0.00e+00 4.78e-01  -5.7 7.71e+00    -  1.90e-01 2.69e-02f  1
iter    objective    inf_pr   inf_du lg(mu)  ||d||  lg(rg) alpha_du alpha_pr  ls
  40  4.2501744e-01 0.00e+00 6.19e-02  -5.7 4.12e-03    -  8.08e-01 9.88e-01f  1
  41  4.1509984e-01 0.00e+00 3.23e-01  -5.7 6.24e-01    -  3.90e-01 1.14e-01f  1
  42  4.1366404e-01 1.79e-04 4.57e-01  -5.7 2.54e+00    -  1.63e-01 7.20e-03f  1
  43  4.0928194e-01 1.23e-04 4.57e-01  -5.7 7.19e+00    -  7.50e-02 9.31e-03f  1
  44  3.8937946e-01 0.00e+00 4.47e-01  -5.7 2.48e+01    -  2.54e-02 1.83e-02f  1
  45  3.7931286e-01 0.00e+00 4.38e-01  -5.7 1.47e+01    -  3.88e-02 1.48e-02f  1
  46  3.6642833e-01 0.00e+00 4.28e-01  -5.7 1.27e+01    -  5.41e-02 2.64e-02f  1
  47  3.6590933e-01 0.00e+00 1.44e-01  -5.7 1.98e-02    -  1.66e-01 1.00e+00f  1
  48  3.6588020e-01 6.41e-06 1.35e-01  -5.7 1.46e+00    -  8.77e-02 2.18e-04h  1
  49  3.5644405e-01 0.00e+00 1.29e-01  -5.7 4.54e+00    -  5.52e-02 4.94e-02f  1
iter    objective    inf_pr   inf_du lg(mu)  ||d||  lg(rg) alpha_du alpha_pr  ls
  50  3.4749620e-01 0.00e+00 1.27e-01  -5.7 5.87e+01    -  8.28e-03 1.23e-02f  1
  51  3.4180299e-01 0.00e+00 1.25e-01  -5.7 3.86e+01    -  8.86e-03 9.49e-03f  1
  52  3.3479496e-01 0.00e+00 1.24e-01  -5.7 4.31e+01    -  1.25e-02 1.27e-02f  1
  53  3.3474481e-01 0.00e+00 4.61e-01  -5.7 2.68e-01    -  1.09e-01 1.00e+00f  1
  54  3.3464178e-01 7.14e-06 4.52e-01  -5.7 9.15e+00    -  2.44e-02 3.00e-04f  1
  55  3.2780898e-01 0.00e+00 4.08e-01  -5.7 2.77e+00    -  1.36e-01 6.16e-02f  1
  56  3.2184285e-01 0.00e+00 4.03e-01  -5.7 4.40e+01    -  5.56e-03 1.54e-02f  1
  57  3.1644393e-01 0.00e+00 3.96e-01  -5.7 4.10e+01    -  1.89e-02 1.46e-02f  1
  58  3.1409683e-01 0.00e+00 3.93e-01  -5.7 2.53e+01    -  1.13e-02 8.26e-03f  1
  59  3.1386055e-01 0.00e+00 1.47e-01  -5.7 1.50e-01    -  3.27e-01 1.00e+00f  1
iter    objective    inf_pr   inf_du lg(mu)  ||d||  lg(rg) alpha_du alpha_pr  ls
  60  3.1335011e-01 3.00e-05 1.40e-01  -5.7 1.04e+01    -  1.94e-02 2.05e-03f  1
  61  3.0722682e-01 0.00e+00 1.26e-01  -5.7 2.64e+00    -  9.56e-02 7.32e-02f  1
  62  3.0456997e-01 0.00e+00 1.07e-01  -5.7 2.94e+00    -  9.05e-02 3.69e-02f  1
  63  3.0143843e-01 0.00e+00 5.19e-02  -5.7 2.26e+00    -  2.59e-01 5.86e-02f  1
  64  3.0114777e-01 0.00e+00 1.61e-02  -5.7 1.31e-02    -  7.98e-01 1.00e+00f  1
  65  3.0084020e-01 0.00e+00 2.67e-03  -5.7 2.67e-03    -  1.00e+00 1.00e+00h  1
  66  3.0055996e-01 0.00e+00 2.71e-03  -5.7 2.71e-03    -  1.00e+00 1.00e+00h  1
  67  3.0031181e-01 0.00e+00 2.64e-03  -5.7 2.64e-03    -  1.00e+00 1.00e+00h  1
  68  3.0009188e-01 0.00e+00 2.42e-03  -5.7 2.42e-03    -  1.00e+00 1.00e+00h  1
  69  2.9989596e-01 0.00e+00 2.16e-03  -5.7 2.16e-03    -  1.00e+00 1.00e+00h  1
iter    objective    inf_pr   inf_du lg(mu)  ||d||  lg(rg) alpha_du alpha_pr  ls
  70  2.9972058e-01 0.00e+00 2.12e-03  -5.7 2.12e-03    -  1.00e+00 1.00e+00h  1
  71  2.9955908e-01 0.00e+00 2.07e-03  -5.7 2.07e-03    -  1.00e+00 1.00e+00h  1
  72  2.9940983e-01 0.00e+00 1.97e-03  -5.7 1.97e-03    -  1.00e+00 1.00e+00h  1
  73  2.9927157e-01 0.00e+00 1.79e-03  -5.7 1.79e-03    -  1.00e+00 1.00e+00h  1
  74  2.9914500e-01 0.00e+00 1.52e-03  -5.7 1.52e-03    -  1.00e+00 1.00e+00h  1
  75  2.9903168e-01 0.00e+00 1.37e-03  -5.7 1.36e-03    -  1.00e+00 1.00e+00h  1
  76  2.9892933e-01 0.00e+00 1.28e-03  -5.7 1.28e-03    -  1.00e+00 1.00e+00h  1
  77  2.9661486e-01 2.17e-04 6.93e-03  -5.7 1.64e+01    -  4.01e-02 1.45e-02f  1
  78  2.9436071e-01 0.00e+00 7.33e-03  -5.7 6.56e+00    -  3.66e-02 2.59e-02f  1
  79  2.9117863e-01 0.00e+00 7.11e-03  -5.7 6.32e+00    -  3.96e-02 3.84e-02f  1
iter    objective    inf_pr   inf_du lg(mu)  ||d||  lg(rg) alpha_du alpha_pr  ls
  80  2.9115047e-01 0.00e+00 6.22e-02  -5.7 6.22e-02    -  1.00e+00 1.00e+00f  1
  81  2.8955116e-01 0.00e+00 6.10e-02  -5.7 2.00e+01    -  1.84e-02 1.02e-02f  1
  82  2.8748752e-01 0.00e+00 5.90e-02  -5.7 3.05e+01    -  3.35e-02 1.41e-02f  1
  83  2.8473545e-01 0.00e+00 5.82e-02  -5.7 3.15e+01    -  1.15e-02 2.25e-02f  1
  84  2.8475492e-01 0.00e+00 2.44e-01  -5.7 3.16e-01    -  2.85e-01 1.00e+00f  1
  85  2.8469347e-01 2.66e-06 2.43e-01  -5.7 1.53e+01    -  2.39e-02 4.15e-04f  1
  86  2.8134696e-01 0.00e+00 2.32e-01  -5.7 1.54e+01    -  3.31e-02 4.08e-02f  1
  87  2.7914128e-01 0.00e+00 2.27e-01  -5.7 1.23e+01    -  4.54e-02 3.19e-02f  1
  88  2.7916063e-01 0.00e+00 8.84e-02  -5.7 1.65e-01    -  2.99e-01 1.00e+00f  1
  89  2.7908298e-01 2.19e-06 8.86e-02  -5.7 1.77e+01    -  1.99e-02 7.69e-04f  1
iter    objective    inf_pr   inf_du lg(mu)  ||d||  lg(rg) alpha_du alpha_pr  ls
  90  2.7668108e-01 0.00e+00 7.87e-02  -5.7 1.24e+01    -  2.97e-02 5.38e-02f  1
  91  2.7520143e-01 0.00e+00 7.43e-02  -5.7 1.04e+01    -  2.50e-02 3.39e-02f  1
  92  2.7376237e-01 0.00e+00 7.15e-02  -5.7 1.96e+01    -  3.37e-02 3.47e-02f  1
  93  2.7386604e-01 0.00e+00 2.35e-01  -5.7 3.02e-01    -  2.54e-01 1.00e+00h  1
  94  2.7382668e-01 2.99e-06 2.36e-01  -5.7 2.68e+01    -  1.72e-02 5.02e-04f  1
  95  2.7220788e-01 0.00e+00 2.24e-01  -5.7 1.22e+01    -  3.50e-02 4.48e-02f  1
  96  2.7098953e-01 0.00e+00 2.17e-01  -5.7 1.27e+01    -  4.59e-02 3.78e-02f  1
  97  2.7095312e-01 0.00e+00 7.18e-04  -5.7 7.17e-04    -  1.00e+00 1.00e+00f  1
  98  2.7092894e-01 0.00e+00 9.17e-04  -5.7 9.16e-04    -  1.00e+00 1.00e+00h  1
  99  2.7089721e-01 0.00e+00 9.19e-04  -5.7 9.18e-04    -  1.00e+00 1.00e+00h  1
iter    objective    inf_pr   inf_du lg(mu)  ||d||  lg(rg) alpha_du alpha_pr  ls
 100  2.7086023e-01 0.00e+00 9.15e-04  -5.7 9.14e-04    -  1.00e+00 1.00e+00h  1
 101  2.7082221e-01 0.00e+00 9.13e-04  -5.7 9.13e-04    -  1.00e+00 1.00e+00h  1
 102  2.7078475e-01 0.00e+00 9.13e-04  -5.7 9.13e-04    -  1.00e+00 1.00e+00h  1
 103  2.7074829e-01 0.00e+00 9.13e-04  -5.7 9.13e-04    -  1.00e+00 1.00e+00h  1
 104  2.7071301e-01 0.00e+00 9.13e-04  -5.7 9.13e-04    -  1.00e+00 1.00e+00h  1
 105  2.7067898e-01 0.00e+00 9.13e-04  -5.7 9.13e-04    -  1.00e+00 1.00e+00h  1
 106  2.7064618e-01 0.00e+00 9.14e-04  -5.7 9.13e-04    -  1.00e+00 1.00e+00h  1
 107  2.7061458e-01 0.00e+00 9.14e-04  -5.7 9.13e-04    -  1.00e+00 1.00e+00h  1
 108  2.7058411e-01 0.00e+00 9.14e-04  -5.7 9.13e-04    -  1.00e+00 1.00e+00h  1
 109  2.7055471e-01 0.00e+00 9.14e-04  -5.7 9.13e-04    -  1.00e+00 1.00e+00h  1
iter    objective    inf_pr   inf_du lg(mu)  ||d||  lg(rg) alpha_du alpha_pr  ls
 110  2.7052630e-01 0.00e+00 9.13e-04  -5.7 9.13e-04    -  1.00e+00 1.00e+00h  1
 111  2.7049881e-01 0.00e+00 9.13e-04  -5.7 9.13e-04    -  1.00e+00 1.00e+00h  1
 112  2.7047217e-01 0.00e+00 9.13e-04  -5.7 9.13e-04    -  1.00e+00 1.00e+00h  1
 113  2.7044631e-01 0.00e+00 9.13e-04  -5.7 9.12e-04    -  1.00e+00 1.00e+00h  1
 114  2.7042120e-01 0.00e+00 9.12e-04  -5.7 9.12e-04    -  1.00e+00 1.00e+00h  1
 115  2.7039676e-01 0.00e+00 9.12e-04  -5.7 9.12e-04    -  1.00e+00 1.00e+00h  1
 116  2.7037297e-01 0.00e+00 9.11e-04  -5.7 9.11e-04    -  1.00e+00 1.00e+00h  1
 117  2.7034977e-01 0.00e+00 9.11e-04  -5.7 9.10e-04    -  1.00e+00 1.00e+00h  1
 118  2.7032715e-01 0.00e+00 9.10e-04  -5.7 9.10e-04    -  1.00e+00 1.00e+00h  1
 119  2.7030506e-01 0.00e+00 9.09e-04  -5.7 9.09e-04    -  1.00e+00 1.00e+00h  1
iter    objective    inf_pr   inf_du lg(mu)  ||d||  lg(rg) alpha_du alpha_pr  ls
 120  2.7028347e-01 0.00e+00 9.09e-04  -5.7 9.08e-04    -  1.00e+00 1.00e+00h  1
 121  2.7026237e-01 0.00e+00 9.08e-04  -5.7 9.07e-04    -  1.00e+00 1.00e+00h  1
 122  2.7024173e-01 0.00e+00 9.07e-04  -5.7 9.07e-04    -  1.00e+00 1.00e+00h  1
 123  2.7022152e-01 0.00e+00 9.06e-04  -5.7 9.06e-04    -  1.00e+00 1.00e+00h  1
 124  2.7020172e-01 0.00e+00 9.05e-04  -5.7 9.04e-04    -  1.00e+00 1.00e+00h  1
 125  2.7018231e-01 0.00e+00 9.04e-04  -5.7 9.03e-04    -  1.00e+00 1.00e+00h  1
 126  2.7016328e-01 0.00e+00 9.02e-04  -5.7 9.02e-04    -  1.00e+00 1.00e+00h  1
 127  2.7014460e-01 0.00e+00 9.01e-04  -5.7 9.01e-04    -  1.00e+00 1.00e+00h  1
 128  2.7012626e-01 0.00e+00 8.99e-04  -5.7 8.99e-04    -  1.00e+00 1.00e+00h  1
 129  2.7010824e-01 0.00e+00 8.98e-04  -5.7 8.98e-04    -  1.00e+00 1.00e+00h  1
iter    objective    inf_pr   inf_du lg(mu)  ||d||  lg(rg) alpha_du alpha_pr  ls
 130  2.7009053e-01 0.00e+00 8.96e-04  -5.7 8.96e-04    -  1.00e+00 1.00e+00h  1
 131  2.7007311e-01 0.00e+00 8.94e-04  -5.7 8.94e-04    -  1.00e+00 1.00e+00h  1
 132  2.7005597e-01 0.00e+00 8.92e-04  -5.7 8.92e-04    -  1.00e+00 1.00e+00h  1
 133  2.7003909e-01 0.00e+00 8.90e-04  -5.7 8.90e-04    -  1.00e+00 1.00e+00h  1
 134  2.7002248e-01 0.00e+00 8.88e-04  -5.7 8.88e-04    -  1.00e+00 1.00e+00h  1
 135  2.7000610e-01 0.00e+00 8.86e-04  -5.7 8.86e-04    -  1.00e+00 1.00e+00h  1
 136  2.6998996e-01 0.00e+00 8.83e-04  -5.7 8.83e-04    -  1.00e+00 1.00e+00h  1
 137  2.6997405e-01 0.00e+00 8.80e-04  -5.7 8.80e-04    -  1.00e+00 1.00e+00h  1
 138  2.6995836e-01 0.00e+00 8.77e-04  -5.7 8.77e-04    -  1.00e+00 1.00e+00h  1
 139  2.6994288e-01 0.00e+00 8.74e-04  -5.7 8.74e-04    -  1.00e+00 1.00e+00h  1
iter    objective    inf_pr   inf_du lg(mu)  ||d||  lg(rg) alpha_du alpha_pr  ls
 140  2.6992760e-01 0.00e+00 8.70e-04  -5.7 8.70e-04    -  1.00e+00 1.00e+00h  1
 141  2.6991252e-01 0.00e+00 8.67e-04  -5.7 8.66e-04    -  1.00e+00 1.00e+00h  1
 142  2.6989763e-01 0.00e+00 8.62e-04  -5.7 8.62e-04    -  1.00e+00 1.00e+00h  1
 143  2.6988293e-01 0.00e+00 8.58e-04  -5.7 8.57e-04    -  1.00e+00 1.00e+00h  1
 144  2.6986841e-01 0.00e+00 8.53e-04  -5.7 8.52e-04    -  1.00e+00 1.00e+00h  1
 145  2.6985407e-01 0.00e+00 8.47e-04  -5.7 8.47e-04    -  1.00e+00 1.00e+00h  1
 146  2.6983990e-01 0.00e+00 8.41e-04  -5.7 8.41e-04    -  1.00e+00 1.00e+00h  1
 147  2.6982589e-01 0.00e+00 8.34e-04  -5.7 8.34e-04    -  1.00e+00 1.00e+00h  1
 148  2.6981206e-01 0.00e+00 8.26e-04  -5.7 8.26e-04    -  1.00e+00 1.00e+00h  1
 149  2.6979838e-01 0.00e+00 8.17e-04  -5.7 8.17e-04    -  1.00e+00 1.00e+00h  1
iter    objective    inf_pr   inf_du lg(mu)  ||d||  lg(rg) alpha_du alpha_pr  ls
 150  2.6978487e-01 0.00e+00 8.08e-04  -5.7 8.08e-04    -  1.00e+00 1.00e+00h  1
 151  2.6977151e-01 0.00e+00 7.97e-04  -5.7 7.97e-04    -  1.00e+00 1.00e+00h  1
 152  2.6975831e-01 0.00e+00 7.84e-04  -5.7 7.84e-04    -  1.00e+00 1.00e+00h  1
 153  2.6974526e-01 0.00e+00 7.70e-04  -5.7 7.70e-04    -  1.00e+00 1.00e+00h  1
 154  2.6973236e-01 0.00e+00 7.54e-04  -5.7 7.53e-04    -  1.00e+00 1.00e+00h  1
 155  2.6971962e-01 0.00e+00 7.35e-04  -5.7 7.35e-04    -  1.00e+00 1.00e+00h  1
 156  2.6970703e-01 0.00e+00 7.13e-04  -5.7 7.13e-04    -  1.00e+00 1.00e+00h  1
 157  2.6969459e-01 0.00e+00 6.87e-04  -5.7 6.87e-04    -  1.00e+00 1.00e+00h  1
 158  2.6968231e-01 0.00e+00 6.57e-04  -5.7 6.57e-04    -  1.00e+00 1.00e+00h  1
 159  2.6967018e-01 0.00e+00 6.22e-04  -5.7 6.21e-04    -  1.00e+00 1.00e+00h  1
iter    objective    inf_pr   inf_du lg(mu)  ||d||  lg(rg) alpha_du alpha_pr  ls
 160  2.6965822e-01 0.00e+00 5.80e-04  -5.7 5.80e-04    -  1.00e+00 1.00e+00h  1
 161  2.6964643e-01 0.00e+00 5.32e-04  -5.7 5.32e-04    -  1.00e+00 1.00e+00h  1
 162  2.6963481e-01 0.00e+00 4.77e-04  -5.7 4.77e-04    -  1.00e+00 1.00e+00h  1
 163  2.6962336e-01 0.00e+00 4.16e-04  -5.7 4.16e-04    -  1.00e+00 1.00e+00h  1
 164  2.6961209e-01 0.00e+00 3.74e-04  -5.7 3.73e-04    -  1.00e+00 1.00e+00h  1
 165  2.6960101e-01 0.00e+00 3.74e-04  -5.7 3.73e-04    -  1.00e+00 1.00e+00h  1
 166  2.6959009e-01 0.00e+00 3.74e-04  -5.7 3.73e-04    -  1.00e+00 1.00e+00h  1
 167  2.6957934e-01 0.00e+00 3.73e-04  -5.7 3.73e-04    -  1.00e+00 1.00e+00h  1
 168  2.6956874e-01 0.00e+00 3.73e-04  -5.7 3.73e-04    -  1.00e+00 1.00e+00h  1
 169  2.6955829e-01 0.00e+00 3.73e-04  -5.7 3.73e-04    -  1.00e+00 1.00e+00h  1
iter    objective    inf_pr   inf_du lg(mu)  ||d||  lg(rg) alpha_du alpha_pr  ls
 170  2.6954796e-01 0.00e+00 3.73e-04  -5.7 3.73e-04    -  1.00e+00 1.00e+00h  1
 171  2.6953776e-01 0.00e+00 3.73e-04  -5.7 3.73e-04    -  1.00e+00 1.00e+00h  1
 172  2.6952766e-01 0.00e+00 3.73e-04  -5.7 3.73e-04    -  1.00e+00 1.00e+00h  1
 173  2.6951768e-01 0.00e+00 3.73e-04  -5.7 3.73e-04    -  1.00e+00 1.00e+00h  1
 174  2.6950779e-01 0.00e+00 3.73e-04  -5.7 3.73e-04    -  1.00e+00 1.00e+00h  1
 175  2.6949801e-01 0.00e+00 3.73e-04  -5.7 3.73e-04    -  1.00e+00 1.00e+00h  1
 176  2.6948832e-01 0.00e+00 3.73e-04  -5.7 3.73e-04    -  1.00e+00 1.00e+00h  1
 177  2.6947872e-01 0.00e+00 3.73e-04  -5.7 3.73e-04    -  1.00e+00 1.00e+00h  1
 178  2.6946921e-01 0.00e+00 3.73e-04  -5.7 3.73e-04    -  1.00e+00 1.00e+00h  1
 179  2.6945978e-01 0.00e+00 3.73e-04  -5.7 3.73e-04    -  1.00e+00 1.00e+00h  1
iter    objective    inf_pr   inf_du lg(mu)  ||d||  lg(rg) alpha_du alpha_pr  ls
 180  2.6945045e-01 0.00e+00 3.73e-04  -5.7 3.73e-04    -  1.00e+00 1.00e+00h  1
 181  2.6944120e-01 0.00e+00 3.73e-04  -5.7 3.73e-04    -  1.00e+00 1.00e+00h  1
 182  2.6943203e-01 0.00e+00 3.73e-04  -5.7 3.73e-04    -  1.00e+00 1.00e+00h  1
 183  2.6942294e-01 0.00e+00 3.73e-04  -5.7 3.73e-04    -  1.00e+00 1.00e+00h  1
 184  2.6941393e-01 0.00e+00 3.73e-04  -5.7 3.73e-04    -  1.00e+00 1.00e+00h  1
 185  2.6940500e-01 0.00e+00 3.73e-04  -5.7 3.73e-04    -  1.00e+00 1.00e+00h  1
 186  2.6939615e-01 0.00e+00 3.73e-04  -5.7 3.73e-04    -  1.00e+00 1.00e+00h  1
 187  2.6938738e-01 0.00e+00 3.73e-04  -5.7 3.73e-04    -  1.00e+00 1.00e+00h  1
 188  2.6937868e-01 0.00e+00 3.73e-04  -5.7 3.73e-04    -  1.00e+00 1.00e+00h  1
 189  2.6937005e-01 0.00e+00 3.73e-04  -5.7 3.73e-04    -  1.00e+00 1.00e+00h  1
iter    objective    inf_pr   inf_du lg(mu)  ||d||  lg(rg) alpha_du alpha_pr  ls
 190  2.6936149e-01 0.00e+00 3.73e-04  -5.7 3.73e-04    -  1.00e+00 1.00e+00h  1
 191  2.6935301e-01 0.00e+00 3.73e-04  -5.7 3.73e-04    -  1.00e+00 1.00e+00h  1
 192  2.6934460e-01 0.00e+00 3.73e-04  -5.7 3.73e-04    -  1.00e+00 1.00e+00h  1
 193  2.6933625e-01 0.00e+00 3.73e-04  -5.7 3.72e-04    -  1.00e+00 1.00e+00h  1
 194  2.6932797e-01 0.00e+00 3.72e-04  -5.7 3.72e-04    -  1.00e+00 1.00e+00h  1
 195  2.6931976e-01 0.00e+00 3.72e-04  -5.7 3.72e-04    -  1.00e+00 1.00e+00h  1
 196  2.6931161e-01 0.00e+00 3.72e-04  -5.7 3.72e-04    -  1.00e+00 1.00e+00h  1
 197  2.6930352e-01 0.00e+00 3.72e-04  -5.7 3.72e-04    -  1.00e+00 1.00e+00h  1
 198  2.6929550e-01 0.00e+00 3.72e-04  -5.7 3.72e-04    -  1.00e+00 1.00e+00h  1
 199  2.6928754e-01 0.00e+00 3.72e-04  -5.7 3.72e-04    -  1.00e+00 1.00e+00h  1
iter    objective    inf_pr   inf_du lg(mu)  ||d||  lg(rg) alpha_du alpha_pr  ls
 200  2.6927964e-01 0.00e+00 3.72e-04  -5.7 3.72e-04    -  1.00e+00 1.00e+00h  1

Number of Iterations....: 200

                                   (scaled)                 (unscaled)
Objective...............:   2.6927964035560420e-01    2.6927964035560420e-01
Dual infeasibility......:   3.7223925962533069e-04    3.7223925962533069e-04
Constraint violation....:   0.0000000000000000e+00    0.0000000000000000e+00
Complementarity.........:   1.8449144625279510e-06    1.8449144625279510e-06
Overall NLP error.......:   3.7223925962533069e-04    3.7223925962533069e-04


Number of objective function evaluations             = 201
Number of objective gradient evaluations             = 201
Number of equality constraint evaluations            = 0
Number of inequality constraint evaluations          = 201
Number of equality constraint Jacobian evaluations   = 0
Number of inequality constraint Jacobian evaluations = 201
Number of Lagrangian Hessian evaluations             = 0
Total CPU secs in IPOPT (w/o function evaluations)   =     17.395
Total CPU secs in NLP function evaluations           =    432.268

EXIT: Maximum Number of Iterations Exceeded.
